
Gurobi 11.0.1 (win64) logging started Sun Mar 17 23:47:50 2024

Set parameter LogFile to value "res/logfile/neos-2746589-doonlog.txt"
Gurobi Optimizer version 11.0.1 build v11.0.1rc0 (win64 - Windows 11.0 (22621.2))

CPU model: AMD Ryzen Threadripper PRO 5975WX 32-Cores, instruction set [SSE2|AVX|AVX2]
Thread count: 32 physical cores, 64 logical processors, using up to 10 threads

Optimize a model with 43290 rows, 50936 columns and 366128 nonzeros
Model fingerprint: 0xb8575c68
Variable types: 8 continuous, 50928 integer (50704 binary)
Coefficient statistics:
  Matrix range     [1e+00, 1e+04]
  Objective range  [2e+00, 2e+01]
  Bounds range     [1e+00, 3e+06]
  RHS range        [1e+00, 1e+04]
Presolve removed 23072 rows and 8498 columns
Presolve time: 0.48s
Presolved: 20218 rows, 42438 columns, 171118 nonzeros
Crushed 1008 out of 1008 user cuts to presolved model
Variable types: 0 continuous, 42438 integer (42326 binary)
Deterministic concurrent LP optimizer: primal and dual simplex
Showing primal log only...

Concurrent spin time: 0.00s

Solved with dual simplex

Use crossover to convert LP symmetric solution to basic solution...

Root relaxation: objective 1.985940e+03, 7148 iterations, 0.17 seconds (0.20 work units)

    Nodes    |    Current Node    |     Objective Bounds      |     Work
 Expl Unexpl |  Obj  Depth IntInf | Incumbent    BestBd   Gap | It/Node Time

     0     0 1985.93980    0  103          - 1985.93980      -     -    2s
     0     0 1985.93980    0  384          - 1985.93980      -     -    3s
     0     0 1985.93980    0  277          - 1985.93980      -     -    3s
     0     0 1985.93980    0  334          - 1985.93980      -     -    3s
     0     0 1985.93980    0  404          - 1985.93980      -     -    3s
     0     0 1985.93980    0  292          - 1985.93980      -     -    4s
     0     0 1985.93980    0  499          - 1985.93980      -     -    4s
     0     0 1986.38980    0  398          - 1986.38980      -     -    4s
     0     0 1986.38980    0  334          - 1986.38980      -     -   10s
     0     0 1986.38980    0  260          - 1986.38980      -     -   11s
     0     0 1986.38980    0  151          - 1986.38980      -     -   11s
     0     0 1991.38980    0  289          - 1991.38980      -     -   12s
     0     0 1991.38980    0  380          - 1991.38980      -     -   12s
     0     0 1991.38980    0  110          - 1991.38980      -     -   13s
     0     0 1991.38980    0  317          - 1991.38980      -     -   13s
     0     0 1991.38980    0  334          - 1991.38980      -     -   14s
     0     0 1991.38980    0  282          - 1991.38980      -     -   14s
     0     0 1991.38980    0  106          - 1991.38980      -     -   15s
     0     0 1991.38980    0  302          - 1991.38980      -     -   15s
     0     0 1991.83980    0   97          - 1991.83980      -     -   16s
     0     0 1991.83980    0  333          - 1991.83980      -     -   16s
     0     0 1991.83980    0  278          - 1991.83980      -     -   17s
     0     0 1991.83980    0   82          - 1991.83980      -     -   17s
     0     0 1991.83980    0  342          - 1991.83980      -     -   17s
     0     0 1992.28980    0   82          - 1992.28980      -     -   18s
     0     0 1992.28980    0  108          - 1992.28980      -     -   18s
     0     0 1994.64118    0  489          - 1994.64118      -     -   18s
     0     0 1994.64118    0  473          - 1994.64118      -     -   18s
     0     0 1994.64118    0  440          - 1994.64118      -     -   19s
     0     0 1994.64118    0  382          - 1994.64118      -     -   19s
     0     0 1994.64118    0  349          - 1994.64118      -     -   19s
     0     0 1994.64118    0   99          - 1994.64118      -     -   20s
     0     0 1994.64118    0  216          - 1994.64118      -     -   20s
     0     0 1994.64118    0  209          - 1994.64118      -     -   20s
     0     0 1994.64118    0  111          - 1994.64118      -     -   21s
     0     0 1994.64118    0  224          - 1994.64118      -     -   21s
     0     0 1995.00000    0  107          - 1995.00000      -     -   22s
     0     0 1995.28462    0   83          - 1995.28462      -     -   22s
     0     0 1995.28462    0  229          - 1995.28462      -     -   22s
     0     0 1995.32979    0  285          - 1995.32979      -     -   22s
     0     0 1995.32979    0  271          - 1995.32979      -     -   22s
     0     0 1995.32979    0  215          - 1995.32979      -     -   22s
     0     0 1995.32979    0  194          - 1995.32979      -     -   23s
     0     0 1995.32979    0  206          - 1995.32979      -     -   23s
     0     0 1995.32979    0  106          - 1995.32979      -     -   23s
     0     0 1995.32979    0  116          - 1995.32979      -     -   24s
     0     0 1995.89592    0   70          - 1995.89592      -     -   24s
     0     0 1995.89592    0   70          - 1995.89592      -     -   24s
     0     0 1995.89592    0   49          - 1995.89592      -     -   25s
     0     0 1995.89592    0   81          - 1995.89592      -     -   25s
     0     0 1999.05204    0   54          - 1999.05204      -     -   25s
     0     0 1999.05204    0   66          - 1999.05204      -     -   26s
     0     0 1999.05204    0  324          - 1999.05204      -     -   26s
     0     0 1999.05204    0  312          - 1999.05204      -     -   26s
     0     0 1999.05204    0  308          - 1999.05204      -     -   26s
     0     0 2002.12092    0   63          - 2002.12092      -     -   27s
     0     0 2002.12092    0   75          - 2002.12092      -     -   27s
     0     0 2002.12092    0  108          - 2002.12092      -     -   27s
     0     0 2002.12092    0  103          - 2002.12092      -     -   28s
     0     0 2002.12092    0   99          - 2002.12092      -     -   28s
     0     0 2002.12092    0  107          - 2002.12092      -     -   28s
     0     0 2002.19592    0  123          - 2002.19592      -     -   28s
     0     0 2002.19592    0  125          - 2002.19592      -     -   28s
     0     0 2002.19592    0   76          - 2002.19592      -     -   28s
     0     0 2002.19592    0  167          - 2002.19592      -     -   28s
     0     0 2002.19592    0  164          - 2002.19592      -     -   28s
     0     0 2002.19592    0  168          - 2002.19592      -     -   28s
     0     0 2002.19592    0  168          - 2002.19592      -     -   28s
     0     0 2002.19592    0  165          - 2002.19592      -     -   28s
     0     0 2002.19592    0  151          - 2002.19592      -     -   28s
     0     0 2002.19592    0  155          - 2002.19592      -     -   28s
     0     0 2002.19592    0  155          - 2002.19592      -     -   28s
     0     0 2002.19592    0  173          - 2002.19592      -     -   29s
     0     0 2002.19592    0  160          - 2002.19592      -     -   29s
     0     0 2002.19592    0   82          - 2002.19592      -     -   29s
     0     0 2002.19592    0  196          - 2002.19592      -     -   29s
     0     0 2002.19592    0  317          - 2002.19592      -     -   29s
     0     0 2002.19592    0  301          - 2002.19592      -     -   29s
     0     0 2002.19592    0  302          - 2002.19592      -     -   29s
     0     0 2002.19592    0  271          - 2002.19592      -     -   30s
     0     0 2002.19592    0  276          - 2002.19592      -     -   30s
     0     0 2002.19592    0   95          - 2002.19592      -     -   30s
     0     0 2002.19592    0   78          - 2002.19592      -     -   30s
     0     0 2002.19592    0  278          - 2002.19592      -     -   30s
     0     0 2002.19592    0  263          - 2002.19592      -     -   30s
     0     0 2002.19592    0  107          - 2002.19592      -     -   31s
     0     0 2002.19592    0  361          - 2002.19592      -     -   31s
     0     0 2002.19592    0  357          - 2002.19592      -     -   31s
     0     0 2006.08980    0    8          - 2006.08980      -     -   32s
H    0     0                    2024.5000000 2006.08980  0.91%     -   32s
H    0     0                    2008.1999979 2006.08980  0.11%     -   32s
     0     0 2006.08980    0    8 2008.20000 2006.08980  0.11%     -   33s
     0     0 2006.43810    0   77 2008.20000 2006.43810  0.09%     -   33s
     0     0 2006.44286    0    8 2008.20000 2006.44286  0.09%     -   34s
     0     0 2006.44286    0   16 2008.20000 2006.44286  0.09%     -   34s
     0     0 2006.44286    0   16 2008.20000 2006.44286  0.09%     -   34s
     0     0 2006.44286    0   10 2008.20000 2006.44286  0.09%     -   34s
     0     0 2006.44286    0   12 2008.20000 2006.44286  0.09%     -   34s
     0     0 2006.44286    0   12 2008.20000 2006.44286  0.09%     -   34s
     0     0 2006.44286    0   16 2008.20000 2006.44286  0.09%     -   35s
     0     0 2006.44286    0   22 2008.20000 2006.44286  0.09%     -   35s
     0     0 2006.44286    0    8 2008.20000 2006.44286  0.09%     -   35s
     0     2 2006.44286    0    8 2008.20000 2006.44286  0.09%     -   35s

Cutting planes:
  Gomory: 1
  Cover: 3
  StrongCG: 1

Explored 68 nodes (131127 simplex iterations) in 35.71 seconds (41.95 work units)
Thread count was 10 (of 64 available processors)

Solution count 3: 2008.2 2024.5 2024.5 

Optimal solution found (tolerance 1.00e-04)
Best objective 2.008199997902e+03, best bound 2.008199997902e+03, gap 0.0000%

User-callback calls 2254, time in user-callback 0.00 sec
